3 100 1655
7 7 7 5 6 5 5 2 8 4
2 1 2
6 6
6
9 2
0 40.0 50.0 0.0 0.0 0 1236
2 45.0 68.0 90.0 10.0 0 1127 90 1 0 1 0 0 0 0 0 0 0
3 45.0 70.0 90.0 30.0 0 1125 88 0 0 0 0 1 1 0 0 0 0
4 42.0 66.0 90.0 10.0 0 1129 66 0 0 0 0 1 0 0 0 0 0
5 42.0 68.0 90.0 10.0 727 782 47 0 0 0 0 0 1 0 0 0 0
6 42.0 65.0 90.0 10.0 0 1130 19 0 0 0 0 1 0 0 0 1 0
7 40.0 69.0 90.0 20.0 621 702 88 0 0 1 1 0 0 1 1 0 0
8 40.0 66.0 90.0 20.0 0 1130 40 0 0 1 0 1 0 0 0 1 1
9 38.0 68.0 90.0 20.0 255 324 14 0 0 0 0 0 0 0 1 1 0
10 38.0 70.0 90.0 10.0 534 605 33 0 0 0 1 0 0 0 1 0 0
11 35.0 66.0 90.0 10.0 357 410 3 0 0 1 0 0 0 0 1 0 0
12 35.0 69.0 90.0 10.0 448 505 69 0 1 0 0 1 0 0 0 0 0
13 25.0 85.0 90.0 20.0 0 1107 32 0 0 0 0 0 1 0 0 1 0
14 22.0 75.0 90.0 30.0 30 92 5 0 0 0 0 0 0 0 0 0 1
15 22.0 85.0 90.0 10.0 0 1106 91 1 0 0 1 0 0 0 0 0 0
16 20.0 80.0 90.0 40.0 384 429 35 0 0 0 0 0 0 0 0 0 1
17 20.0 85.0 90.0 40.0 0 1105 92 0 0 1 0 0 0 0 0 0 0
18 18.0 75.0 90.0 20.0 99 148 53 0 0 1 0 1 0 0 0 0 0
19 15.0 75.0 90.0 20.0 0 1110 28 0 0 0 0 0 0 1 0 0 0
20 15.0 80.0 90.0 10.0 0 1106 6 0 1 0 0 0 0 1 0 0 0
21 30.0 50.0 90.0 10.0 0 1136 16 0 0 0 1 0 0 1 0 0 0
22 30.0 52.0 90.0 20.0 0 1135 87 0 0 0 0 0 0 0 0 1 0
23 28.0 52.0 90.0 20.0 812 883 89 1 0 0 0 0 0 0 0 0 0
24 28.0 55.0 90.0 10.0 732 777 7 0 0 0 0 1 0 1 1 1 0
25 25.0 50.0 90.0 10.0 0 1131 95 0 0 0 0 0 0 1 0 0 0
26 25.0 52.0 90.0 40.0 169 224 63 0 0 1 0 1 0 0 0 1 1
27 25.0 55.0 90.0 10.0 0 1130 68 1 1 0 0 1 0 1 0 0 0
28 23.0 52.0 90.0 10.0 261 316 61 0 1 0 0 0 0 0 0 0 0
29 23.0 55.0 90.0 20.0 0 1128 20 0 0 0 0 0 1 0 0 0 0
30 20.0 50.0 90.0 10.0 0 1126 5 1 0 1 0 0 0 0 0 0 1
31 20.0 55.0 90.0 10.0 449 504 81 0 0 0 0 0 1 0 1 0 1
32 10.0 35.0 90.0 20.0 0 1112 9 0 0 0 0 0 1 0 0 0 0
33 10.0 40.0 90.0 30.0 0 1114 4 0 1 0 0 0 0 1 0 0 0
34 8.0 40.0 90.0 40.0 87 158 92 0 1 1 1 0 0 1 0 1 0
35 8.0 45.0 90.0 20.0 0 1113 67 0 0 0 0 0 0 0 1 0 0
36 5.0 35.0 90.0 10.0 283 344 25 0 0 0 1 1 0 0 0 1 0
37 5.0 45.0 90.0 10.0 665 716 52 1 0 0 0 0 0 0 0 0 0
38 2.0 40.0 90.0 20.0 0 1106 20 0 1 0 1 0 0 0 0 0 0
39 0.0 40.0 90.0 30.0 479 522 55 0 0 0 0 0 1 0 0 1 0
40 0.0 45.0 90.0 20.0 567 624 51 0 1 0 0 0 0 0 0 0 0
41 35.0 30.0 90.0 10.0 264 321 50 0 0 0 1 0 0 0 0 0 0
42 35.0 32.0 90.0 10.0 166 235 11 0 1 0 0 1 0 0 0 1 0
43 33.0 32.0 90.0 20.0 68 149 18 0 0 1 0 0 0 0 0 1 0
44 33.0 35.0 90.0 10.0 0 1129 9 0 1 0 0 0 0 0 0 0 0
45 32.0 30.0 90.0 10.0 359 412 50 0 1 0 0 0 0 1 1 0 1
46 30.0 30.0 90.0 10.0 541 600 52 0 1 0 0 1 0 0 1 0 0
47 30.0 32.0 90.0 30.0 0 1125 65 1 0 0 0 0 0 0 0 0 0
48 30.0 35.0 90.0 10.0 0 1127 80 0 0 0 0 0 1 0 0 0 0
49 28.0 30.0 90.0 10.0 0 1122 88 0 1 1 0 0 0 0 0 1 1
50 28.0 35.0 90.0 10.0 1001 1066 16 1 0 0 0 1 0 0 0 1 0
51 26.0 32.0 90.0 10.0 0 1123 35 0 0 0 0 1 0 0 0 0 0
52 25.0 30.0 90.0 10.0 0 1121 97 1 0 0 0 0 0 0 0 1 0
53 25.0 35.0 90.0 10.0 0 1124 53 1 0 1 1 0 0 0 0 0 1
54 44.0 5.0 90.0 20.0 286 347 1 0 1 0 0 0 0 1 0 0 1
55 42.0 10.0 90.0 40.0 0 1105 4 0 1 0 1 0 0 1 0 0 0
56 42.0 15.0 90.0 10.0 95 158 48 0 1 0 0 1 0 0 0 0 0
57 40.0 5.0 90.0 30.0 385 436 72 0 0 0 0 0 1 0 0 0 0
58 40.0 15.0 90.0 40.0 0 1111 73 1 0 0 0 0 0 0 0 0 0
59 38.0 5.0 90.0 30.0 471 534 30 1 0 0 0 1 0 0 0 0 0
60 38.0 15.0 90.0 10.0 0 1110 69 0 0 0 0 0 0 0 0 0 1
61 35.0 5.0 90.0 20.0 0 1100 36 0 0 0 0 1 0 0 1 0 0
62 50.0 30.0 90.0 10.0 0 1123 33 0 0 0 0 0 1 0 1 0 0
63 50.0 35.0 90.0 20.0 262 317 78 0 0 0 0 1 0 0 0 0 1
64 50.0 40.0 90.0 50.0 0 1131 78 0 0 0 0 1 0 0 0 0 0
65 48.0 30.0 90.0 10.0 632 693 28 0 0 0 0 1 0 0 0 0 0
66 48.0 40.0 90.0 10.0 76 129 81 0 0 1 1 0 0 0 0 0 1
67 47.0 35.0 90.0 10.0 826 875 16 0 0 0 0 0 0 0 0 0 1
68 47.0 40.0 90.0 10.0 12 77 25 0 0 0 0 0 0 1 0 0 0
69 45.0 30.0 90.0 10.0 734 777 82 0 0 0 0 0 1 0 0 0 0
70 45.0 35.0 90.0 10.0 916 969 23 1 1 0 0 0 1 1 0 0 0
71 95.0 30.0 90.0 30.0 387 456 95 0 0 0 0 0 0 1 0 0 0
72 95.0 35.0 90.0 20.0 0 1088 27 0 0 0 0 0 1 0 0 0 0
73 53.0 30.0 90.0 10.0 0 1122 32 0 0 0 1 0 0 0 0 0 0
74 92.0 30.0 90.0 10.0 0 1090 79 0 0 1 1 1 0 0 0 1 0
75 53.0 35.0 90.0 50.0 353 412 20 1 0 0 0 0 0 0 0 0 0
76 45.0 65.0 90.0 20.0 0 1130 62 1 1 0 0 1 0 1 0 0 0
77 90.0 35.0 90.0 10.0 203 260 49 0 0 0 0 0 1 0 1 1 0
78 88.0 30.0 90.0 10.0 574 643 53 0 0 0 0 1 1 0 1 0 0
79 88.0 35.0 90.0 20.0 109 170 10 0 0 0 1 0 1 0 0 0 0
80 87.0 30.0 90.0 10.0 668 731 49 0 1 0 0 1 0 0 1 0 0
81 85.0 25.0 90.0 10.0 769 820 9 1 0 0 0 0 0 0 0 0 0
82 85.0 35.0 90.0 30.0 0 1098 19 1 0 0 1 0 0 0 0 0 0
83 75.0 55.0 90.0 20.0 0 1110 84 1 0 1 0 1 0 0 1 0 0
84 72.0 55.0 90.0 10.0 0 1113 15 0 0 0 0 0 0 0 0 1 0
85 70.0 58.0 90.0 20.0 458 523 21 1 0 0 0 0 0 0 0 0 0
86 68.0 60.0 90.0 30.0 0 1116 46 0 0 1 0 0 0 0 0 0 0
87 66.0 55.0 90.0 10.0 0 1119 46 0 0 0 0 0 1 0 0 0 0
88 65.0 55.0 90.0 20.0 85 144 48 0 0 0 1 0 0 1 0 0 1
89 65.0 60.0 90.0 30.0 645 708 98 0 0 0 0 0 1 0 0 1 0
90 63.0 58.0 90.0 10.0 0 1121 56 0 1 0 0 0 1 0 1 0 0
91 60.0 55.0 90.0 10.0 0 1125 46 0 0 0 0 1 0 0 0 0 0
92 60.0 60.0 90.0 10.0 0 1123 88 0 0 0 1 1 0 0 0 0 0
93 67.0 85.0 90.0 20.0 368 441 16 0 0 0 0 0 1 0 0 0 0
94 65.0 85.0 90.0 40.0 475 518 49 1 0 0 0 0 0 0 0 0 0
95 65.0 82.0 90.0 10.0 0 1105 87 0 0 0 1 0 0 0 0 0 0
96 62.0 80.0 90.0 30.0 0 1108 98 0 1 0 0 0 0 0 0 0 0
97 60.0 80.0 90.0 10.0 0 1109 62 0 0 0 0 0 0 0 0 1 0
98 60.0 85.0 90.0 30.0 0 1105 59 0 0 0 1 0 0 0 0 0 0
99 58.0 75.0 90.0 20.0 0 1115 53 1 0 1 0 1 0 0 0 0 0
100 55.0 80.0 90.0 10.0 743 820 83 0 0 1 1 0 1 1 0 1 0
101 55.0 85.0 90.0 20.0 647 726 81 0 1 0 0 0 0 0 0 1 0